n = 29;
lu = [|-686, 281
      |-133, 384
      |-250, 399
      |-664, 204
      |-137, -37
      |-803, 9
      |-775, -629
      |69, 494
      |-381, 803
      |-666, -126
      |-167, 178
      |269, 403
      |18, 654
      |-433, 74
      |-492, -392
      |47, 764
      |-6, 539
      |559, 782
      |231, 311
      |-439, 272
      |24, 539
      |-272, -230
      |207, 695
      |-391, 835
      |0, 768
      |126, 215
      |-547, 699
      |-213, 708
      |-229, 361|];
